my_solver/instances/table9-1.cnf
p cnf 999 2122
149 0
158 0
211 0
254 0
283 0
313 0
338 0
372 0
478 0
482 0
493 0
512 0
599 0
644 0
661 0
735 0
786 0
828 0
866 0
897 0
927 0
971 0
992 0
-111 0
-311 0
-411 0
-511 0
-611 0
-711 0
-811 0
-911 0
-112 0
-212 0
-312 0
-412 0
-612 0
-712 0
-812 0
-912 0
-113 0
-213 0
-413 0
-513 0
-613 0
-713 0
-813 0
-913 0
-127 0
-227 0
-327 0
-427 0
-527 0
-627 0
-727 0
-827 0
-128 0
-228 0
-328 0
-428 0
-528 0
-628 0
-728 0
-928 0
-135 0
-235 0
-335 0
-435 0
-535 0
-635 0
-835 0
-935 0
-138 0
-238 0
-438 0
-538 0
-638 0
-738 0
-838 0
-938 0
-144 0
-244 0
-344 0
-444 0
-544 0
-744 0
-844 0
-944 0
-249 0
-349 0
-449 0
-549 0
-649 0
-749 0
-849 0
-949 0
-154 0
-354 0
-454 0
-554 0
-654 0
-754 0
-854 0
-954 0
-258 0
-358 0
-458 0
-558 0
-658 0
-758 0
-858 0
-958 0
-161 0
-261 0
-361 0
-461 0
-561 0
-761 0
-861 0
-961 0
-166 0
-266 0
-366 0
-466 0
-566 0
-666 0
-766 0
-966 0
-171 0
-271 0
-371 0
-471 0
-571 0
-671 0
-771 0
-871 0
-172 0
-272 0
-472 0
-572 0
-672 0
-772 0
-872 0
-972 0
-178 0
-278 0
-378 0
-578 0
-678 0
-778 0
-878 0
-978 0
-182 0
-282 0
-382 0
-582 0
-682 0
-782 0
-882 0
-982 0
-183 0
-383 0
-483 0
-583 0
-683 0
-783 0
-883 0
-983 0
-186 0
-286 0
-386 0
-486 0
-586 0
-686 0
-886 0
-986 0
-192 0
-292 0
-392 0
-492 0
-592 0
-692 0
-792 0
-892 0
-193 0
-293 0
-393 0
-593 0
-693 0
-793 0
-893 0
-993 0
-197 0
-297 0
-397 0
-497 0
-597 0
-697 0
-797 0
-997 0
-199 0
-299 0
-399 0
-499 0
-699 0
-799 0
-899 0
-999 0
-118 0
-148 0
-168 0
-188 0
-198 0
-119 0
-129 0
-139 0
-159 0
-169 0
-179 0
-189 0
-221 0
-231 0
-241 0
-251 0
-281 0
-291 0
-223 0
-233 0
-243 0
-253 0
-263 0
-273 0
-214 0
-224 0
-234 0
-264 0
-274 0
-284 0
-294 0
-322 0
-332 0
-342 0
-352 0
-362 0
-323 0
-333 0
-343 0
-353 0
-363 0
-373 0
-318 0
-348 0
-368 0
-388 0
-398 0
-422 0
-432 0
-442 0
-452 0
-462 0
-423 0
-433 0
-443 0
-453 0
-463 0
-473 0
-418 0
-448 0
-468 0
-488 0
-498 0
-522 0
-532 0
-542 0
-552 0
-562 0
-519 0
-529 0
-539 0
-559 0
-569 0
-579 0
-589 0
-621 0
-631 0
-641 0
-651 0
-681 0
-691 0
-614 0
-624 0
-634 0
-664 0
-674 0
-684 0
-694 0
-715 0
-725 0
-745 0
-755 0
-765 0
-775 0
-785 0
-795 0
-716 0
-726 0
-736 0
-746 0
-756 0
-776 0
-796 0
-816 0
-826 0
-836 0
-846 0
-856 0
-876 0
-896 0
-817 0
-837 0
-847 0
-857 0
-867 0
-877 0
-887 0
-818 0
-848 0
-868 0
-888 0
-898 0
-921 0
-931 0
-941 0
-951 0
-981 0
-991 0
-922 0
-932 0
-942 0
-952 0
-962 0
-917 0
-937 0
-947 0
-957 0
-967 0
-977 0
-987 0
-141 0
-142 0
-143 0
-145 0
-146 0
-147 0
-151 0
-152 0
-153 0
-155 0
-156 0
-157 0
-215 0
-216 0
-217 0
-218 0
-219 0
-252 0
-255 0
-256 0
-257 0
-259 0
-285 0
-287 0
-288 0
-289 0
-314 0
-315 0
-316 0
-317 0
-319 0
-331 0
-334 0
-336 0
-337 0
-339 0
-374 0
-375 0
-376 0
-377 0
-379 0
-474 0
-475 0
-476 0
-477 0
-479 0
-481 0
-484 0
-485 0
-487 0
-489 0
-491 0
-494 0
-495 0
-496 0
-514 0
-515 0
-516 0
-517 0
-518 0
-591 0
-594 0
-595 0
-596 0
-598 0
-642 0
-643 0
-645 0
-646 0
-647 0
-648 0
-662 0
-663 0
-665 0
-667 0
-668 0
-669 0
-731 0
-732 0
-733 0
-734 0
-737 0
-739 0
-781 0
-784 0
-787 0
-788 0
-789 0
-821 0
-822 0
-823 0
-824 0
-825 0
-829 0
-862 0
-863 0
-864 0
-865 0
-869 0
-891 0
-894 0
-895 0
-923 0
-924 0
-925 0
-926 0
-929 0
-973 0
-974 0
-975 0
-976 0
-979 0
-994 0
-995 0
-996 0
-998 0
-121 0
-131 0
-321 0
-441 0
-451 0
-541 0
-551 0
-791 0
-881 0
-622 0
-632 0
-123 0
-133 0
-173 0
-573 0
-673 0
-164 0
-364 0
-464 0
-564 0
-815 0
-915 0
-946 0
-956 0
-717 0
-777 0
-248 0
-268 0
-588 0
-688 0
-698 0
-718 0
-918 0
-269 0
-359 0
-369 0
-679 0
-689 0
111 112 113 114 115 116 117 118 119 0
121 122 123 124 125 126 127 128 129 0
131 132 133 134 135 136 137 138 139 0
161 162 163 164 165 166 167 168 169 0
171 172 173 174 175 176 177 178 179 0
181 182 183 184 185 186 187 188 189 0
191 192 193 194 195 196 197 198 199 0
221 222 223 224 225 226 227 228 229 0
231 232 233 234 235 236 237 238 239 0
241 242 243 244 245 246 247 248 249 0
261 262 263 264 265 266 267 268 269 0
271 272 273 274 275 276 277 278 279 0
291 292 293 294 295 296 297 298 299 0
321 322 323 324 325 326 327 328 329 0
341 342 343 344 345 346 347 348 349 0
351 352 353 354 355 356 357 358 359 0
361 362 363 364 365 366 367 368 369 0
381 382 383 384 385 386 387 388 389 0
391 392 393 394 395 396 397 398 399 0
411 412 413 414 415 416 417 418 419 0
421 422 423 424 425 426 427 428 429 0
431 432 433 434 435 436 437 438 439 0
441 442 443 444 445 446 447 448 449 0
451 452 453 454 455 456 457 458 459 0
461 462 463 464 465 466 467 468 469 0
521 522 523 524 525 526 527 528 529 0
531 532 533 534 535 536 537 538 539 0
541 542 543 544 545 546 547 548 549 0
551 552 553 554 555 556 557 558 559 0
561 562 563 564 565 566 567 568 569 0
571 572 573 574 575 576 577 578 579 0
581 582 583 584 585 586 587 588 589 0
611 612 613 614 615 616 617 618 619 0
621 622 623 624 625 626 627 628 629 0
631 632 633 634 635 636 637 638 639 0
651 652 653 654 655 656 657 658 659 0
671 672 673 674 675 676 677 678 679 0
681 682 683 684 685 686 687 688 689 0
691 692 693 694 695 696 697 698 699 0
711 712 713 714 715 716 717 718 719 0
721 722 723 724 725 726 727 728 729 0
741 742 743 744 745 746 747 748 749 0
751 752 753 754 755 756 757 758 759 0
761 762 763 764 765 766 767 768 769 0
771 772 773 774 775 776 777 778 779 0
791 792 793 794 795 796 797 798 799 0
811 812 813 814 815 816 817 818 819 0
831 832 833 834 835 836 837 838 839 0
841 842 843 844 845 846 847 848 849 0
851 852 853 854 855 856 857 858 859 0
871 872 873 874 875 876 877 878 879 0
881 882 883 884 885 886 887 888 889 0
911 912 913 914 915 916 917 918 919 0
931 932 933 934 935 936 937 938 939 0
941 942 943 944 945 946 947 948 949 0
951 952 953 954 955 956 957 958 959 0
961 962 963 964 965 966 967 968 969 0
981 982 983 984 985 986 987 988 989 0
-114 -414 0
-114 -714 0
-114 -814 0
-114 -914 0
-414 -714 0
-414 -814 0
-414 -914 0
-714 -814 0
-714 -914 0
-814 -914 0
-115 -415 0
-115 -615 0
-415 -615 0
-116 -416 0
-116 -616 0
-116 -916 0
-416 -616 0
-416 -916 0
-616 -916 0
-117 -417 0
-117 -617 0
-417 -617 0
-419 -619 0
-419 -719 0
-419 -819 0
-419 -919 0
-619 -719 0
-619 -819 0
-619 -919 0
-719 -819 0
-719 -919 0
-819 -919 0
-421 -521 0
-421 -721 0
-521 -721 0
-122 -222 0
-122 -722 0
-222 -722 0
-523 -623 0
-523 -723 0
-623 -723 0
-124 -324 0
-124 -424 0
-124 -524 0
-124 -724 0
-324 -424 0
-324 -524 0
-324 -724 0
-424 -524 0
-424 -724 0
-524 -724 0
-125 -225 0
-125 -325 0
-125 -425 0
-125 -525 0
-125 -625 0
-225 -325 0
-225 -425 0
-225 -525 0
-225 -625 0
-325 -425 0
-325 -525 0
-325 -625 0
-425 -525 0
-425 -625 0
-525 -625 0
-126 -226 0
-126 -326 0
-126 -426 0
-126 -526 0
-126 -626 0
-226 -326 0
-226 -426 0
-226 -526 0
-226 -626 0
-326 -426 0
-326 -526 0
-326 -626 0
-426 -526 0
-426 -626 0
-526 -626 0
-229 -329 0
-229 -429 0
-229 -629 0
-229 -729 0
-329 -429 0
-329 -629 0
-329 -729 0
-429 -629 0
-429 -729 0
-629 -729 0
-431 -531 0
-431 -831 0
-531 -831 0
-132 -232 0
-132 -832 0
-232 -832 0
-533 -633 0
-533 -833 0
-533 -933 0
-633 -833 0
-633 -933 0
-833 -933 0
-134 -434 0
-134 -534 0
-134 -834 0
-134 -934 0
-434 -534 0
-434 -834 0
-434 -934 0
-534 -834 0
-534 -934 0
-834 -934 0
-136 -236 0
-136 -436 0
-136 -536 0
-136 -636 0
-136 -936 0
-236 -436 0
-236 -536 0
-236 -636 0
-236 -936 0
-436 -536 0
-436 -636 0
-436 -936 0
-536 -636 0
-536 -936 0
-636 -936 0
-137 -237 0
-137 -437 0
-137 -537 0
-137 -637 0
-237 -437 0
-237 -537 0
-237 -637 0
-437 -537 0
-437 -637 0
-537 -637 0
-239 -439 0
-239 -639 0
-239 -839 0
-239 -939 0
-439 -639 0
-439 -839 0
-439 -939 0
-639 -839 0
-639 -939 0
-839 -939 0
-341 -741 0
-341 -841 0
-741 -841 0
-242 -742 0
-242 -842 0
-742 -842 0
-543 -743 0
-543 -843 0
-543 -943 0
-743 -843 0
-743 -943 0
-843 -943 0
-245 -345 0
-245 -445 0
-245 -545 0
-245 -845 0
-245 -945 0
-345 -445 0
-345 -545 0
-345 -845 0
-345 -945 0
-445 -545 0
-445 -845 0
-445 -945 0
-545 -845 0
-545 -945 0
-845 -945 0
-246 -346 0
-246 -446 0
-246 -546 0
-346 -446 0
-346 -546 0
-446 -546 0
-247 -347 0
-247 -447 0
-247 -547 0
-247 -747 0
-347 -447 0
-347 -547 0
-347 -747 0
-447 -547 0
-447 -747 0
-547 -747 0
-548 -748 0
-548 -948 0
-748 -948 0
-351 -751 0
-351 -851 0
-751 -851 0
-652 -752 0
-652 -852 0
-752 -852 0
-553 -653 0
-553 -753 0
-553 -853 0
-553 -953 0
-653 -753 0
-653 -853 0
-653 -953 0
-753 -853 0
-753 -953 0
-853 -953 0
-355 -455 0
-355 -555 0
-355 -655 0
-355 -855 0
-355 -955 0
-455 -555 0
-455 -655 0
-455 -855 0
-455 -955 0
-555 -655 0
-555 -855 0
-555 -955 0
-655 -855 0
-655 -955 0
-855 -955 0
-356 -456 0
-356 -556 0
-356 -656 0
-456 -556 0
-456 -656 0
-556 -656 0
-357 -457 0
-357 -557 0
-357 -657 0
-357 -757 0
-457 -557 0
-457 -657 0
-457 -757 0
-557 -657 0
-557 -757 0
-657 -757 0
-459 -659 0
-459 -759 0
-459 -859 0
-459 -959 0
-659 -759 0
-659 -859 0
-659 -959 0
-759 -859 0
-759 -959 0
-859 -959 0
-162 -262 0
-162 -762 0
-262 -762 0
-163 -563 0
-163 -763 0
-163 -963 0
-563 -763 0
-563 -963 0
-763 -963 0
-764 -964 0
-165 -265 0
-165 -365 0
-165 -465 0
-165 -565 0
-165 -965 0
-265 -365 0
-265 -465 0
-265 -565 0
-265 -965 0
-365 -465 0
-365 -565 0
-365 -965 0
-465 -565 0
-465 -965 0
-565 -965 0
-167 -267 0
-167 -367 0
-167 -467 0
-167 -567 0
-167 -767 0
-267 -367 0
-267 -467 0
-267 -567 0
-267 -767 0
-367 -467 0
-367 -567 0
-367 -767 0
-467 -567 0
-467 -767 0
-567 -767 0
-568 -768 0
-568 -968 0
-768 -968 0
-469 -769 0
-469 -969 0
-769 -969 0
-773 -873 0
-174 -574 0
-174 -774 0
-174 -874 0
-574 -774 0
-574 -874 0
-774 -874 0
-175 -275 0
-175 -575 0
-175 -675 0
-175 -875 0
-275 -575 0
-275 -675 0
-275 -875 0
-575 -675 0
-575 -875 0
-675 -875 0
-176 -276 0
-176 -576 0
-176 -676 0
-276 -576 0
-276 -676 0
-576 -676 0
-177 -277 0
-177 -577 0
-177 -677 0
-277 -577 0
-277 -677 0
-577 -677 0
-279 -779 0
-279 -879 0
-779 -879 0
-181 -381 0
-181 -581 0
-381 -581 0
-184 -384 0
-184 -584 0
-184 -884 0
-184 -984 0
-384 -584 0
-384 -884 0
-384 -984 0
-584 -884 0
-584 -984 0
-884 -984 0
-185 -385 0
-185 -585 0
-185 -685 0
-185 -885 0
-185 -985 0
-385 -585 0
-385 -685 0
-385 -885 0
-385 -985 0
-585 -685 0
-585 -885 0
-585 -985 0
-685 -885 0
-685 -985 0
-885 -985 0
-187 -387 0
-187 -587 0
-187 -687 0
-387 -587 0
-387 -687 0
-587 -687 0
-389 -889 0
-389 -989 0
-889 -989 0
-191 -391 0
-194 -394 0
-194 -794 0
-394 -794 0
-195 -295 0
-195 -395 0
-195 -695 0
-295 -395 0
-295 -695 0
-395 -695 0
-196 -296 0
-196 -396 0
-196 -696 0
-296 -396 0
-296 -696 0
-396 -696 0
-298 -798 0
-181 -191 0
-122 -132 0
-122 -162 0
-132 -162 0
-114 -124 0
-114 -134 0
-114 -174 0
-114 -184 0
-114 -194 0
-124 -134 0
-124 -174 0
-124 -184 0
-124 -194 0
-134 -174 0
-134 -184 0
-134 -194 0
-174 -184 0
-174 -194 0
-184 -194 0
-115 -125 0
-115 -165 0
-115 -175 0
-115 -185 0
-115 -195 0
-125 -165 0
-125 -175 0
-125 -185 0
-125 -195 0
-165 -175 0
-165 -185 0
-165 -195 0
-175 -185 0
-175 -195 0
-185 -195 0
-116 -126 0
-116 -136 0
-116 -176 0
-116 -196 0
-126 -136 0
-126 -176 0
-126 -196 0
-136 -176 0
-136 -196 0
-176 -196 0
-117 -137 0
-117 -167 0
-117 -177 0
-117 -187 0
-137 -167 0
-137 -177 0
-137 -187 0
-167 -177 0
-167 -187 0
-177 -187 0
-222 -232 0
-222 -242 0
-222 -262 0
-232 -242 0
-232 -262 0
-242 -262 0
-225 -245 0
-225 -265 0
-225 -275 0
-225 -295 0
-245 -265 0
-245 -275 0
-245 -295 0
-265 -275 0
-265 -295 0
-275 -295 0
-226 -236 0
-226 -246 0
-226 -276 0
-226 -296 0
-236 -246 0
-236 -276 0
-236 -296 0
-246 -276 0
-246 -296 0
-276 -296 0
-237 -247 0
-237 -267 0
-237 -277 0
-247 -267 0
-247 -277 0
-267 -277 0
-229 -239 0
-229 -279 0
-239 -279 0
-341 -351 0
-341 -381 0
-341 -391 0
-351 -381 0
-351 -391 0
-381 -391 0
-324 -384 0
-324 -394 0
-384 -394 0
-325 -345 0
-325 -355 0
-325 -365 0
-325 -385 0
-325 -395 0
-345 -355 0
-345 -365 0
-345 -385 0
-345 -395 0
-355 -365 0
-355 -385 0
-355 -395 0
-365 -385 0
-365 -395 0
-385 -395 0
-326 -346 0
-326 -356 0
-326 -396 0
-346 -356 0
-346 -396 0
-356 -396 0
-347 -357 0
-347 -367 0
-347 -387 0
-357 -367 0
-357 -387 0
-367 -387 0
-329 -389 0
-421 -431 0
-414 -424 0
-414 -434 0
-424 -434 0
-415 -425 0
-415 -445 0
-415 -455 0
-415 -465 0
-425 -445 0
-425 -455 0
-425 -465 0
-445 -455 0
-445 -465 0
-455 -465 0
-416 -426 0
-416 -436 0
-416 -446 0
-416 -456 0
-426 -436 0
-426 -446 0
-426 -456 0
-436 -446 0
-436 -456 0
-446 -456 0
-417 -437 0
-417 -447 0
-417 -457 0
-417 -467 0
-437 -447 0
-437 -457 0
-437 -467 0
-447 -457 0
-447 -467 0
-457 -467 0
-419 -429 0
-419 -439 0
-419 -459 0
-419 -469 0
-429 -439 0
-429 -459 0
-429 -469 0
-439 -459 0
-439 -469 0
-459 -469 0
-521 -531 0
-521 -581 0
-531 -581 0
-523 -533 0
-523 -543 0
-523 -553 0
-523 -563 0
-533 -543 0
-533 -553 0
-533 -563 0
-543 -553 0
-543 -563 0
-553 -563 0
-524 -534 0
-524 -574 0
-524 -584 0
-534 -574 0
-534 -584 0
-574 -584 0
-525 -545 0
-525 -555 0
-525 -565 0
-525 -575 0
-525 -585 0
-545 -555 0
-545 -565 0
-545 -575 0
-545 -585 0
-555 -565 0
-555 -575 0
-555 -585 0
-565 -575 0
-565 -585 0
-575 -585 0
-526 -536 0
-526 -546 0
-526 -556 0
-526 -576 0
-536 -546 0
-536 -556 0
-536 -576 0
-546 -556 0
-546 -576 0
-556 -576 0
-537 -547 0
-537 -557 0
-537 -567 0
-537 -577 0
-537 -587 0
-547 -557 0
-547 -567 0
-547 -577 0
-547 -587 0
-557 -567 0
-557 -577 0
-557 -587 0
-567 -577 0
-567 -587 0
-577 -587 0
-548 -568 0
-623 -633 0
-623 -653 0
-633 -653 0
-615 -625 0
-615 -655 0
-615 -675 0
-615 -685 0
-615 -695 0
-625 -655 0
-625 -675 0
-625 -685 0
-625 -695 0
-655 -675 0
-655 -685 0
-655 -695 0
-675 -685 0
-675 -695 0
-685 -695 0
-616 -626 0
-616 -636 0
-616 -656 0
-616 -676 0
-616 -696 0
-626 -636 0
-626 -656 0
-626 -676 0
-626 -696 0
-636 -656 0
-636 -676 0
-636 -696 0
-656 -676 0
-656 -696 0
-676 -696 0
-617 -637 0
-617 -657 0
-617 -677 0
-617 -687 0
-637 -657 0
-637 -677 0
-637 -687 0
-657 -677 0
-657 -687 0
-677 -687 0
-619 -629 0
-619 -639 0
-619 -659 0
-629 -639 0
-629 -659 0
-639 -659 0
-721 -741 0
-721 -751 0
-741 -751 0
-722 -742 0
-722 -752 0
-722 -762 0
-742 -752 0
-742 -762 0
-752 -762 0
-723 -743 0
-723 -753 0
-723 -763 0
-723 -773 0
-743 -753 0
-743 -763 0
-743 -773 0
-753 -763 0
-753 -773 0
-763 -773 0
-714 -724 0
-714 -764 0
-714 -774 0
-714 -794 0
-724 -764 0
-724 -774 0
-724 -794 0
-764 -774 0
-764 -794 0
-774 -794 0
-747 -757 0
-747 -767 0
-757 -767 0
-748 -768 0
-748 -798 0
-768 -798 0
-719 -729 0
-719 -759 0
-719 -769 0
-719 -779 0
-729 -759 0
-729 -769 0
-729 -779 0
-759 -769 0
-759 -779 0
-769 -779 0
-831 -841 0
-831 -851 0
-841 -851 0
-832 -842 0
-832 -852 0
-842 -852 0
-833 -843 0
-833 -853 0
-833 -873 0
-843 -853 0
-843 -873 0
-853 -873 0
-814 -834 0
-814 -874 0
-814 -884 0
-834 -874 0
-834 -884 0
-874 -884 0
-845 -855 0
-845 -875 0
-845 -885 0
-855 -875 0
-855 -885 0
-875 -885 0
-819 -839 0
-819 -859 0
-819 -879 0
-819 -889 0
-839 -859 0
-839 -879 0
-839 -889 0
-859 -879 0
-859 -889 0
-879 -889 0
-933 -943 0
-933 -953 0
-933 -963 0
-943 -953 0
-943 -963 0
-953 -963 0
-914 -934 0
-914 -964 0
-914 -984 0
-934 -964 0
-934 -984 0
-964 -984 0
-945 -955 0
-945 -965 0
-945 -985 0
-955 -965 0
-955 -985 0
-965 -985 0
-916 -936 0
-948 -968 0
-948 -988 0
-968 -988 0
-919 -939 0
-919 -959 0
-919 -969 0
-919 -989 0
-939 -959 0
-939 -969 0
-939 -989 0
-959 -969 0
-959 -989 0
-969 -989 0
-114 -115 0
-114 -116 0
-114 -117 0
-115 -116 0
-115 -117 0
-116 -117 0
-122 -124 0
-122 -125 0
-122 -126 0
-124 -125 0
-124 -126 0
-125 -126 0
-132 -134 0
-132 -136 0
-132 -137 0
-134 -136 0
-134 -137 0
-136 -137 0
-162 -163 0
-162 -165 0
-162 -167 0
-163 -165 0
-163 -167 0
-165 -167 0
-174 -175 0
-174 -176 0
-174 -177 0
-175 -176 0
-175 -177 0
-176 -177 0
-181 -184 0
-181 -185 0
-181 -187 0
-184 -185 0
-184 -187 0
-185 -187 0
-191 -194 0
-191 -195 0
-191 -196 0
-194 -195 0
-194 -196 0
-195 -196 0
-222 -225 0
-222 -226 0
-222 -229 0
-225 -226 0
-225 -229 0
-226 -229 0
-232 -236 0
-232 -237 0
-232 -239 0
-236 -237 0
-236 -239 0
-237 -239 0
-242 -245 0
-242 -246 0
-242 -247 0
-245 -246 0
-245 -247 0
-246 -247 0
-262 -265 0
-262 -267 0
-265 -267 0
-275 -276 0
-275 -277 0
-275 -279 0
-276 -277 0
-276 -279 0
-277 -279 0
-295 -296 0
-295 -298 0
-296 -298 0
-324 -325 0
-324 -326 0
-324 -329 0
-325 -326 0
-325 -329 0
-326 -329 0
-341 -345 0
-341 -346 0
-341 -347 0
-345 -346 0
-345 -347 0
-346 -347 0
-351 -355 0
-351 -356 0
-351 -357 0
-355 -356 0
-355 -357 0
-356 -357 0
-365 -367 0
-381 -384 0
-381 -385 0
-381 -387 0
-381 -389 0
-384 -385 0
-384 -387 0
-384 -389 0
-385 -387 0
-385 -389 0
-387 -389 0
-391 -394 0
-391 -395 0
-391 -396 0
-394 -395 0
-394 -396 0
-395 -396 0
-414 -415 0
-414 -416 0
-414 -417 0
-414 -419 0
-415 -416 0
-415 -417 0
-415 -419 0
-416 -417 0
-416 -419 0
-417 -419 0
-421 -424 0
-421 -425 0
-421 -426 0
-421 -429 0
-424 -425 0
-424 -426 0
-424 -429 0
-425 -426 0
-425 -429 0
-426 -429 0
-431 -434 0
-431 -436 0
-431 -437 0
-431 -439 0
-434 -436 0
-434 -437 0
-434 -439 0
-436 -437 0
-436 -439 0
-437 -439 0
-445 -446 0
-445 -447 0
-446 -447 0
-455 -456 0
-455 -457 0
-455 -459 0
-456 -457 0
-456 -459 0
-457 -459 0
-465 -467 0
-465 -469 0
-467 -469 0
-521 -523 0
-521 -524 0
-521 -525 0
-521 -526 0
-523 -524 0
-523 -525 0
-523 -526 0
-524 -525 0
-524 -526 0
-525 -526 0
-531 -533 0
-531 -534 0
-531 -536 0
-531 -537 0
-533 -534 0
-533 -536 0
-533 -537 0
-534 -536 0
-534 -537 0
-536 -537 0
-543 -545 0
-543 -546 0
-543 -547 0
-543 -548 0
-545 -546 0
-545 -547 0
-545 -548 0
-546 -547 0
-546 -548 0
-547 -548 0
-553 -555 0
-553 -556 0
-553 -557 0
-555 -556 0
-555 -557 0
-556 -557 0
-563 -565 0
-563 -567 0
-563 -568 0
-565 -567 0
-565 -568 0
-567 -568 0
-574 -575 0
-574 -576 0
-574 -577 0
-575 -576 0
-575 -577 0
-576 -577 0
-581 -584 0
-581 -585 0
-581 -587 0
-584 -585 0
-584 -587 0
-585 -587 0
-615 -616 0
-615 -617 0
-615 -618 0
-615 -619 0
-616 -617 0
-616 -618 0
-616 -619 0
-617 -618 0
-617 -619 0
-618 -619 0
-623 -625 0
-623 -626 0
-623 -629 0
-625 -626 0
-625 -629 0
-626 -629 0
-633 -636 0
-633 -637 0
-633 -639 0
-636 -637 0
-636 -639 0
-637 -639 0
-652 -653 0
-652 -655 0
-652 -656 0
-652 -657 0
-652 -659 0
-653 -655 0
-653 -656 0
-653 -657 0
-653 -659 0
-655 -656 0
-655 -657 0
-655 -659 0
-656 -657 0
-656 -659 0
-657 -659 0
-675 -676 0
-675 -677 0
-676 -677 0
-685 -687 0
-695 -696 0
-714 -719 0
-721 -722 0
-721 -723 0
-721 -724 0
-721 -729 0
-722 -723 0
-722 -724 0
-722 -729 0
-723 -724 0
-723 -729 0
-724 -729 0
-741 -742 0
-741 -743 0
-741 -747 0
-741 -748 0
-742 -743 0
-742 -747 0
-742 -748 0
-743 -747 0
-743 -748 0
-747 -748 0
-751 -752 0
-751 -753 0
-751 -757 0
-751 -759 0
-752 -753 0
-752 -757 0
-752 -759 0
-753 -757 0
-753 -759 0
-757 -759 0
-762 -763 0
-762 -764 0
-762 -767 0
-762 -768 0
-762 -769 0
-763 -764 0
-763 -767 0
-763 -768 0
-763 -769 0
-764 -767 0
-764 -768 0
-764 -769 0
-767 -768 0
-767 -769 0
-768 -769 0
-773 -774 0
-773 -779 0
-774 -779 0
-794 -798 0
-814 -819 0
-831 -832 0
-831 -833 0
-831 -834 0
-831 -839 0
-832 -833 0
-832 -834 0
-832 -839 0
-833 -834 0
-833 -839 0
-834 -839 0
-841 -842 0
-841 -843 0
-841 -845 0
-842 -843 0
-842 -845 0
-843 -845 0
-851 -852 0
-851 -853 0
-851 -855 0
-851 -859 0
-852 -853 0
-852 -855 0
-852 -859 0
-853 -855 0
-853 -859 0
-855 -859 0
-873 -874 0
-873 -875 0
-873 -879 0
-874 -875 0
-874 -879 0
-875 -879 0
-884 -885 0
-884 -889 0
-885 -889 0
-914 -916 0
-914 -919 0
-916 -919 0
-933 -934 0
-933 -936 0
-933 -939 0
-934 -936 0
-934 -939 0
-936 -939 0
-943 -945 0
-943 -948 0
-945 -948 0
-953 -955 0
-953 -959 0
-955 -959 0
-963 -964 0
-963 -965 0
-963 -968 0
-963 -969 0
-964 -965 0
-964 -968 0
-964 -969 0
-965 -968 0
-965 -969 0
-968 -969 0
-984 -985 0
-984 -988 0
-984 -989 0
-985 -988 0
-985 -989 0
-988 -989 0
-341 -351 0
-181 -191 0
-381 -391 0
-421 -431 0
-521 -531 0
-741 -751 0
-841 -851 0
-122 -132 0
-222 -232 0
-242 -262 0
-742 -752 0
-742 -762 0
-752 -762 0
-842 -852 0
-523 -533 0
-623 -633 0
-543 -553 0
-543 -563 0
-553 -563 0
-743 -753 0
-743 -763 0
-753 -763 0
-843 -853 0
-943 -953 0
-943 -963 0
-953 -963 0
-114 -124 0
-114 -134 0
-124 -134 0
-174 -184 0
-174 -194 0
-184 -194 0
-384 -394 0
-414 -424 0
-414 -434 0
-424 -434 0
-524 -534 0
-574 -584 0
-714 -724 0
-814 -834 0
-914 -934 0
-774 -794 0
-874 -884 0
-115 -125 0
-245 -265 0
-345 -355 0
-345 -365 0
-355 -365 0
-175 -185 0
-175 -195 0
-185 -195 0
-275 -295 0
-385 -395 0
-415 -425 0
-615 -625 0
-445 -455 0
-445 -465 0
-455 -465 0
-545 -555 0
-545 -565 0
-555 -565 0
-575 -585 0
-675 -685 0
-675 -695 0
-685 -695 0
-845 -855 0
-945 -955 0
-945 -965 0
-955 -965 0
-875 -885 0
-116 -126 0
-116 -136 0
-126 -136 0
-226 -236 0
-346 -356 0
-176 -196 0
-276 -296 0
-416 -426 0
-416 -436 0
-426 -436 0
-526 -536 0
-616 -626 0
-616 -636 0
-626 -636 0
-446 -456 0
-546 -556 0
-676 -696 0
-916 -936 0
-117 -137 0
-247 -267 0
-347 -357 0
-347 -367 0
-357 -367 0
-177 -187 0
-417 -437 0
-617 -637 0
-447 -457 0
-447 -467 0
-457 -467 0
-547 -557 0
-547 -567 0
-557 -567 0
-577 -587 0
-677 -687 0
-747 -757 0
-747 -767 0
-757 -767 0
-548 -568 0
-748 -768 0
-948 -968 0
-229 -239 0
-419 -429 0
-419 -439 0
-429 -439 0
-619 -629 0
-619 -639 0
-629 -639 0
-459 -469 0
-719 -729 0
-819 -839 0
-919 -939 0
-759 -769 0
-959 -969 0
-879 -889 0
-181 -381 0
-181 -391 0
-191 -381 0
-191 -391 0
-421 -521 0
-421 -531 0
-431 -521 0
-431 -531 0
-721 -831 0
-741 -841 0
-741 -851 0
-751 -841 0
-751 -851 0
-122 -222 0
-122 -232 0
-132 -222 0
-132 -232 0
-162 -242 0
-162 -262 0
-722 -832 0
-742 -842 0
-742 -852 0
-752 -842 0
-752 -852 0
-762 -842 0
-762 -852 0
-523 -623 0
-523 -633 0
-533 -623 0
-533 -633 0
-543 -653 0
-553 -653 0
-563 -653 0
-723 -833 0
-723 -933 0
-833 -933 0
-743 -843 0
-743 -853 0
-743 -943 0
-743 -953 0
-743 -963 0
-753 -843 0
-753 -853 0
-753 -943 0
-753 -953 0
-753 -963 0
-763 -843 0
-763 -853 0
-763 -943 0
-763 -953 0
-763 -963 0
-843 -943 0
-843 -953 0
-843 -963 0
-853 -943 0
-853 -953 0
-853 -963 0
-773 -873 0
-114 -324 0
-124 -324 0
-134 -324 0
-174 -384 0
-174 -394 0
-184 -384 0
-184 -394 0
-194 -384 0
-194 -394 0
-414 -524 0
-414 -534 0
-424 -524 0
-424 -534 0
-434 -524 0
-434 -534 0
-714 -814 0
-714 -834 0
-714 -914 0
-714 -934 0
-724 -814 0
-724 -834 0
-724 -914 0
-724 -934 0
-814 -914 0
-814 -934 0
-834 -914 0
-834 -934 0
-764 -964 0
-774 -874 0
-774 -884 0
-774 -984 0
-794 -874 0
-794 -884 0
-794 -984 0
-874 -984 0
-884 -984 0
-115 -225 0
-115 -325 0
-125 -225 0
-125 -325 0
-225 -325 0
-165 -245 0
-165 -265 0
-165 -345 0
-165 -355 0
-165 -365 0
-245 -345 0
-245 -355 0
-245 -365 0
-265 -345 0
-265 -355 0
-265 -365 0
-175 -275 0
-175 -295 0
-175 -385 0
-175 -395 0
-185 -275 0
-185 -295 0
-185 -385 0
-185 -395 0
-195 -275 0
-195 -295 0
-195 -385 0
-195 -395 0
-275 -385 0
-275 -395 0
-295 -385 0
-295 -395 0
-415 -525 0
-415 -615 0
-415 -625 0
-425 -525 0
-425 -615 0
-425 -625 0
-525 -615 0
-525 -625 0
-445 -545 0
-445 -555 0
-445 -565 0
-445 -655 0
-455 -545 0
-455 -555 0
-455 -565 0
-455 -655 0
-465 -545 0
-465 -555 0
-465 -565 0
-465 -655 0
-545 -655 0
-555 -655 0
-565 -655 0
-575 -675 0
-575 -685 0
-575 -695 0
-585 -675 0
-585 -685 0
-585 -695 0
-845 -945 0
-845 -955 0
-845 -965 0
-855 -945 0
-855 -955 0
-855 -965 0
-875 -985 0
-885 -985 0
-116 -226 0
-116 -236 0
-116 -326 0
-126 -226 0
-126 -236 0
-126 -326 0
-136 -226 0
-136 -236 0
-136 -326 0
-226 -326 0
-236 -326 0
-246 -346 0
-246 -356 0
-176 -276 0
-176 -296 0
-176 -396 0
-196 -276 0
-196 -296 0
-196 -396 0
-276 -396 0
-296 -396 0
-416 -526 0
-416 -536 0
-416 -616 0
-416 -626 0
-416 -636 0
-426 -526 0
-426 -536 0
-426 -616 0
-426 -626 0
-426 -636 0
-436 -526 0
-436 -536 0
-436 -616 0
-436 -626 0
-436 -636 0
-526 -616 0
-526 -626 0
-526 -636 0
-536 -616 0
-536 -626 0
-536 -636 0
-446 -546 0
-446 -556 0
-446 -656 0
-456 -546 0
-456 -556 0
-456 -656 0
-546 -656 0
-556 -656 0
-576 -676 0
-576 -696 0
-117 -237 0
-137 -237 0
-167 -247 0
-167 -267 0
-167 -347 0
-167 -357 0
-167 -367 0
-247 -347 0
-247 -357 0
-247 -367 0
-267 -347 0
-267 -357 0
-267 -367 0
-177 -277 0
-177 -387 0
-187 -277 0
-187 -387 0
-277 -387 0
-417 -537 0
-417 -617 0
-417 -637 0
-437 -537 0
-437 -617 0
-437 -637 0
-537 -617 0
-537 -637 0
-447 -547 0
-447 -557 0
-447 -567 0
-447 -657 0
-457 -547 0
-457 -557 0
-457 -567 0
-457 -657 0
-467 -547 0
-467 -557 0
-467 -567 0
-467 -657 0
-547 -657 0
-557 -657 0
-567 -657 0
-577 -677 0
-577 -687 0
-587 -677 0
-587 -687 0
-748 -948 0
-748 -968 0
-768 -948 0
-768 -968 0
-798 -988 0
-229 -329 0
-239 -329 0
-279 -389 0
-419 -619 0
-419 -629 0
-419 -639 0
-429 -619 0
-429 -629 0
-429 -639 0
-439 -619 0
-439 -629 0
-439 -639 0
-459 -659 0
-469 -659 0
-719 -819 0
-719 -839 0
-719 -919 0
-719 -939 0
-729 -819 0
-729 -839 0
-729 -919 0
-729 -939 0
-819 -919 0
-819 -939 0
-839 -919 0
-839 -939 0
-759 -859 0
-759 -959 0
-759 -969 0
-769 -859 0
-769 -959 0
-769 -969 0
-859 -959 0
-859 -969 0
-779 -879 0
-779 -889 0
-779 -989 0
-879 -989 0
-889 -989 0
